\ Model verify
\ LP format - for model browsing. Use MPS format to capture full model detail.
\ Signature: 0x1e674f41e644b55
Minimize
 
Subject To
 R0: 0.0939873008067355 x[0] - 0.0801587428748653 x[1]
   - 0.2321651558476131 x[2] - 0.1016707950399143 x[3]
   - 0.1123791077670922 x[4] + 0.0564857621892683 x[5] + x[6] = 0
 R1: 0.00318346786002091 x[0] - 0.0195640546081578 x[1]
   + 0.0609156436179007 x[2] - 0.00289145238394826 x[3]
   + 0.0391605322488466 x[4] + 0.1149071944985535 x[5] + x[7] = 0
 R2: 0.0435283316587528 x[0] - 0.022286484087934 x[1]
   - 0.074565441886129 x[2] - 0.1024362573834665 x[3]
   - 0.113629609448032 x[4] - 0.0759629592603451 x[5] + x[8] = 0
 R3: 0.0497399409024455 x[0] - 0.0565308065667053 x[1]
   - 0.0365009229841397 x[2] + 0.065348660227559 x[3]
   + 0.1842902631557924 x[4] - 0.1154711426621397 x[5] + x[9] = 0
 R4: 0.0654180424748165 x[0] - 0.1006208866221309 x[1]
   + 0.0454134251386138 x[2] + 0.1354515413831294 x[3]
   - 0.0103950347811657 x[4] - 0.0012946963572388 x[5] + x[10] = 0
 R5: 0.000179261 x[0] - 0.0960232443252406 x[1] - 0.1179754547776687 x[2]
   + 0.117358720523185 x[3] - 0.1901427522639063 x[4]
   - 0.1326764094762854 x[5] + x[11] = 0
 R6: - 0.060246434310033 x[12] - 0.0820077807075897 x[13]
   + 0.0622284181830043 x[14] - 0.0668590774225284 x[15]
   + 0.00446380451900201 x[16] + 0.0112732997015624 x[17] + x[18] = 0
 R7: 0.1192691083206986 x[12] - 0.2237369991846669 x[13]
   - 0.016420511767567 x[14] - 0.0571008593228091 x[15]
   + 0.0611198423152037 x[16] + 0.0797186774097683 x[17] + x[19] = 0
 R8: - 0.0780038233521586 x[12] - 0.0746842829706362 x[13]
   - 0.0675530256816824 x[14] - 0.1130032589428844 x[15]
   - 0.0884585485366437 x[16] - 0.0568980554105681 x[17] + x[20] = 0
 R9: x[18] >= 0.500001
 R10: x[19] >= 0.500001
 R11: x[20] >= 0.500001
Bounds
 x[0] <= 1
 x[1] <= 1
 x[2] <= 1
 x[3] <= 1
 x[4] <= 1
 x[5] <= 1
 -0.1504730629960038 <= x[6] <= 0.5263738015294849
 -0.2181668382253217 <= x[7] <= 0.0224555069921061
 -0.0435283316587528 <= x[8] <= 0.3888807520659066
 -0.2993788642857969 <= x[9] <= 0.2085028722129847
 -0.2462830089965597 <= x[10] <= 0.1123106177605353
 -0.117537981449569 <= x[11] <= 0.536817860843101
 -0.1493475777362127 <= x[12] <= 0.4826043304777554
 -0.2147701466608805 <= x[13] <= 0.0224517333583188
 -0.0435008612075371 <= x[14] <= 0.3703949328391321
 -0.2907440854023895 <= x[15] <= 0.2055330585204453
 -0.2414214680658895 <= x[16] <= 0.1118407716738826
 -0.1169996865670692 <= x[17] <= 0.4905754289625565
 -0.0751280933899135 <= x[18] <= 0.0497617781464668
 -0.1688715745147473 <= x[19] <= 0.06473672681881
 -0.0914961277418474 <= x[20] <= 0.1253750386643079
End
